n = 15;
m = 5;
p = [8,2,0,1,4];
v = [0.503,0.387,0.059,0.269,0.052];
c = array2d(1..5, 1..5, [
0,1.707,1.406,3.562,3.79,
1.963,0,2.124,4.666,3.095,
1.24,4.554,0,3.764,2.121,
4.595,2.582,2.14,0,2.591,
4.937,4.785,3.506,4.47,0
]);
ce = [9.562,10.534,6.565,10.25,12.903];
ct = 141.96;
maxM = 25;
